c1_10_4

VEHICLE
NUMBER   CAPACITY
250     200

CUSTOMER
CUST NO. XCOORD.  YCOORD.  DEMAND  READY TIME DUE DATE  SERVICE TIME

0   250    250     0     0    1824     0
455 266 405 20 680 745 90
252 267 400 10 0 1584 90
969 277 403 10 395 464 90
471 241 403 10 686 744 90
260 243 399 10 782 837 90
268 319 468 10 0 1506 90
118 325 466 40 0 1506 90
574 322 468 20 0 1505 90
210 323 471 30 0 1502 90
213 272 403 30 494 555 90
897 326 466 30 753 817 90
914 270 400 10 151 213 90
251 269 402 20 0 1581 90
621 272 402 10 0 1581 90
6 322 465 10 226 291 90
980 319 470 10 0 1504 90
202 328 466 30 0 1505 90
506 250 411 30 0 1573 90
772 249 407 10 403 455 90
238 246 398 40 0 1586 90
287 250 405 20 303 370 90
362 270 401 20 217 268 90
485 267 394 10 0 1589 90
547 328 458 10 0 1512 90
626 245 408 10 585 652 90
86 268 400 20 0 1583 90
597 248 404 30 0 1580 90
